% Generated FlatZinc statistics:
%%%mzn-stat: paths=0
%%%mzn-stat: flatBoolVars=1399
%%%mzn-stat: flatIntVars=185
%%%mzn-stat: flatBoolConstraints=429
%%%mzn-stat: flatIntConstraints=1562
%%%mzn-stat: evaluatedReifiedConstraints=118
%%%mzn-stat: evaluatedHalfReifiedConstraints=1281
%%%mzn-stat: eliminatedLinearConstraints=1
%%%mzn-stat: method="minimize"
%%%mzn-stat: flatTime=0.117347
%%%mzn-stat-end
end = 138
carga_por_operario = [138, 0, 0, 0]
desbalance = 138
Job 1:  29(op:1)  35(op:1)  41(op:1)  48(op:1)  51(op:1)
Job 2:  59(op:1)  62(op:1)  65(op:1)  73(op:1)  81(op:1)
Job 3:  88(op:1)  90(op:1)  92(op:1)  96(op:1) 104(op:1)
Job 4: 121(op:1) 123(op:1) 125(op:1) 132(op:1) 136(op:1)
Job 5: 107(op:1) 108(op:1) 109(op:1) 113(op:1) 134(op:1)
Job 6:   0(op:1)   4(op:1)   9(op:1)  13(op:1)  21(op:1)
----------
%%%mzn-stat: initTime=0.00679399
%%%mzn-stat: solveTime=59.8822
%%%mzn-stat: solutions=1
%%%mzn-stat: variables=1585
%%%mzn-stat: propagators=1991
%%%mzn-stat: propagations=783575748
%%%mzn-stat: nodes=8708307
%%%mzn-stat: failures=4354133
%%%mzn-stat: restarts=0
%%%mzn-stat: peakDepth=75
%%%mzn-stat-end
%%%mzn-stat: nSolutions=1
%%%mzn-stat-end
